
Gurobi 11.0.3 (linux64) logging started Sun Nov 24 16:59:43 2024

Set parameter LogFile to value "/home/yihong/Coding/OR_SUC/SUC_results_bigM100000_thread4/case24_ieee_rts_theta0.5_epsilon0.05_gurobi_seed1390000_num_gen100_N_WDR100_load_scaling_factor1_proposed_T20quadra_cost.txt"
Set parameter TimeLimit to value 3600
Gurobi Optimizer version 11.0.3 build v11.0.3rc0 (linux64 - "Ubuntu 20.04.6 LTS")

CPU model: AMD EPYC 7532 32-Core Processor, instruction set [SSE2|AVX|AVX2]
Thread count: 64 physical cores, 128 logical processors, using up to 4 threads

Optimize a model with 47882 rows, 24901 columns and 1096282 nonzeros
Model fingerprint: 0x47abeb7a
Model has 2000 quadratic constraints
Variable types: 22901 continuous, 2000 integer (2000 binary)
Coefficient statistics:
  Matrix range     [3e-04, 3e+03]
  QMatrix range    [2e-03, 8e-03]
  QLMatrix range   [4e-01, 6e+01]
  Objective range  [1e+00, 1e+00]
  Bounds range     [1e+00, 1e+00]
  RHS range        [1e+00, 9e+03]
Presolve removed 39216 rows and 10613 columns
Presolve time: 0.34s
Presolved: 8666 rows, 14288 columns, 48848 nonzeros
Presolved model has 2000 quadratic constraint(s)
Variable types: 12288 continuous, 2000 integer (2000 binary)

Root relaxation: objective 4.174054e+04, 6910 iterations, 0.17 seconds (0.24 work units)

    Nodes    |    Current Node    |     Objective Bounds      |     Work
 Expl Unexpl |  Obj  Depth IntInf | Incumbent    BestBd   Gap | It/Node Time

H    0     0                    578998.85375 41740.5437  92.8%     -    0s
*    0     0               0    578998.85375 41740.5437  92.8%     -    0s
     0     0 306631.430    0  648 578998.854 306631.430  47.0%     -    1s
     0     0 533768.840    0  217 578998.854 533768.840  7.81%     -    1s
     0     0 533842.006    0   33 578998.854 533842.006  7.80%     -    1s
     0     0 533932.166    0   40 578998.854 533932.166  7.78%     -    1s
     0     0 533936.385    0   40 578998.854 533936.385  7.78%     -    1s
     0     0 533937.514    0   40 578998.854 533937.514  7.78%     -    1s
     0     2 533937.514    0   40 578998.854 533937.514  7.78%     -    2s
   269   321 534174.091   60    - 578998.854 533939.746  7.78%  23.1    5s
   657   626 534122.155   52   52 578998.854 533959.766  7.78%  25.4   10s
   681   644 534302.663   51   36 578998.854 533969.021  7.78%  44.1   15s
   699   659 533975.678   26   38 578998.854 533972.194  7.78%  61.7   20s
H 1002   825                    534749.16606 533991.551  0.14%  72.8   24s
* 1002   825              81    534749.16606 533991.551  0.14%  72.8   24s
  1078   855 534017.780   35   20 534749.166 533993.230  0.14%  72.7   25s
H 1224   680                    534275.38955 533993.230  0.05%  70.3   26s
* 1224   680              76    534275.38955 533993.230  0.05%  70.3   26s

Cutting planes:
  Gomory: 25
  Implied bound: 60
  MIR: 49
  Flow cover: 36
  RLT: 66

Explored 1252 nodes (105127 simplex iterations) in 27.40 seconds (27.25 work units)
Thread count was 4 (of 128 available processors)

Solution count 4: 534275 534275 534749 578999 

Optimal solution found (tolerance 1.00e-03)
Warning: max constraint violation (2.1944e-06) exceeds tolerance
Best objective 5.342753895547e+05, best bound 5.339932300575e+05, gap 0.0528%
